Gurobi Optimizer version 10.0.3 build v10.0.3rc0 (win64)

CPU model: 13th Gen Intel(R) Core(TM) i7-13700T, instruction set [SSE2|AVX|AVX2]
Thread count: 16 physical cores, 24 logical processors, using up to 24 threads

Optimize a model with 995165 rows, 171389 columns and 2047525 nonzeros
Model fingerprint: 0xb1e501ec
Variable types: 0 continuous, 171389 integer (23200 binary)
Coefficient statistics:
  Matrix range     [1e+00, 6e+02]
  Objective range  [6e+00, 3e+02]
  Bounds range     [1e+00, 1e+00]
  RHS range        [1e+00, 6e+02]
Presolve removed 284438 rows and 135630 columns (presolve time = 5s) ...
Presolve removed 858073 rows and 164171 columns (presolve time = 10s) ...
Presolve removed 995165 rows and 171389 columns
Presolve time: 11.65s
Presolve: All rows and columns removed

Explored 0 nodes (0 simplex iterations) in 11.83 seconds (12.26 work units)
Thread count was 1 (of 24 available processors)

Solution count 1: 74597.8 

Optimal solution found (tolerance 1.00e-04)
Best objective 7.459784000000e+04, best bound 7.459784000000e+04, gap 0.0000%
Valor da função objetivo:  74597.84000000001

Tempo para criar o modelo:  9.532012462615967
